NAME: ACTUAL_TOURS/amz0508
TYPE: TOUR
COMMENT: RouteID_35dbfc50-8cee-47ab-bd6f-2a4b051ed26b
DIMENSION: 121
TOUR_SECTION
56
10
88
92
44
20
90
31
114
18
41
62
76
71
70
69
54
101
94
14
117
75
115
57
93
102
30
19
47
85
27
77
97
24
91
80
35
23
9
95
108
8
39
84
73
36
46
49
107
106
78
105
6
7
3
111
37
104
13
32
59
110
45
103
42
34
96
25
63
72
74
11
22
12
118
52
38
113
66
68
86
87
64
33
60
43
21
50
81
5
120
16
116
100
61
4
51
67
2
89
65
17
82
1
79
112
40
58
99
48
109
28
53
55
26
29
119
83
98
121
15
-1
EOF
